p tw 2023 3094
1 2
1 145
1 146
3 4
3 146
3 147
5 6
5 193
7 8
7 194
9 10
9 148
9 149
11 12
11 149
11 150
13 14
13 195
15 16
15 196
17 18
17 197
19 20
19 198
21 22
21 199
23 24
23 151
23 152
25 26
25 152
25 153
27 28
27 200
29 30
29 201
31 32
31 154
31 155
33 34
33 155
33 156
35 36
35 202
37 38
37 157
37 158
39 40
39 158
39 159
41 42
41 203
43 44
43 204
45 46
45 160
45 161
47 48
47 161
47 162
49 50
49 205
51 52
51 206
53 54
53 207
55 56
55 208
57 58
57 209
59 60
59 163
59 164
61 62
61 164
61 165
63 64
63 210
65 66
65 211
67 68
67 166
67 167
69 70
69 167
69 168
71 72
71 212
73 74
73 169
73 170
75 76
75 170
75 171
77 78
77 213
79 80
79 214
81 82
81 172
81 173
83 84
83 173
83 174
85 86
85 215
87 88
87 216
89 90
89 217
91 92
91 218
93 94
93 219
95 96
95 175
95 176
97 98
97 176
97 177
99 100
99 220
101 102
101 221
103 104
103 178
103 179
105 106
105 179
105 180
107 108
107 222
109 110
109 181
109 182
111 112
111 182
111 183
113 114
113 223
115 116
115 224
117 118
117 184
117 185
119 120
119 185
119 186
121 122
121 225
123 124
123 226
125 126
125 227
127 128
127 228
129 130
129 229
131 132
131 187
131 188
133 134
133 188
133 189
135 136
135 230
137 138
137 231
139 140
139 190
139 191
141 142
141 191
141 192
143 144
143 232
145 146
145 275
146 147
147 276
148 149
148 277
149 150
150 278
151 152
151 242
151 243
152 153
153 279
154 155
154 260
154 261
155 156
156 280
157 158
157 234
157 235
158 159
159 281
160 161
160 252
160 253
161 162
162 282
163 164
163 283
164 165
165 248
165 249
166 167
166 284
167 168
168 266
168 267
169 170
169 285
170 171
171 240
171 241
172 173
172 286
173 174
174 258
174 259
175 176
175 245
175 246
176 177
177 287
178 179
178 263
178 264
179 180
180 288
181 182
181 237
181 238
182 183
183 289
184 185
184 255
184 256
185 186
186 290
187 188
187 291
188 189
189 292
190 191
190 293
191 192
192 294
193 296
193 297
194 446
194 447
195 299
195 300
196 449
196 450
197 415
197 416
198 233
198 234
199 452
199 453
200 251
200 252
201 455
201 456
202 269
202 270
203 243
203 244
204 385
204 386
205 261
205 262
206 409
206 410
207 270
207 271
208 463
208 464
209 239
209 240
210 314
210 315
211 257
211 258
212 317
212 318
213 320
213 321
214 249
214 250
215 323
215 324
216 267
216 268
217 418
217 419
218 236
218 237
219 476
219 477
220 254
220 255
221 479
221 480
222 272
222 273
223 246
223 247
224 388
224 389
225 264
225 265
226 412
226 413
227 273
227 274
228 487
228 488
229 377
229 378
230 338
230 339
231 401
231 402
232 341
232 342
233 234
233 345
234 235
235 348
236 237
236 359
237 238
238 362
239 240
239 351
240 241
241 319
241 320
242 243
242 346
243 244
244 308
244 309
245 246
245 360
246 247
247 332
247 333
248 249
248 313
248 314
249 250
250 356
251 252
251 302
251 303
252 253
253 349
254 255
254 326
254 327
255 256
256 363
257 258
257 353
258 259
259 322
259 323
260 261
260 347
261 262
262 311
262 312
263 264
263 361
264 265
265 335
265 336
266 267
266 316
266 317
267 268
268 358
269 270
269 305
269 306
270 271
271 350
272 273
272 329
272 330
273 274
274 364
275 343
276 295
276 296
277 344
278 298
278 299
279 301
279 302
280 304
280 305
281 307
281 308
282 310
282 311
283 352
284 354
285 355
286 357
287 325
287 326
288 328
288 329
289 331
289 332
290 334
290 335
291 365
292 337
292 338
293 366
294 340
294 341
295 296
295 421
296 297
297 379
297 380
298 299
298 422
299 300
300 403
300 404
301 302
301 423
302 303
303 392
303 393
304 305
304 424
305 306
306 416
306 417
307 308
307 373
307 374
308 309
309 426
310 311
310 397
310 398
311 312
312 428
313 314
313 386
313 387
314 315
315 430
316 317
316 410
316 411
317 318
318 431
319 320
319 432
320 321
321 382
321 383
322 323
322 434
323 324
324 406
324 407
325 326
325 436
326 327
327 395
327 396
328 329
328 437
329 330
330 419
330 420
331 332
331 376
331 377
332 333
333 439
334 335
334 400
334 401
335 336
336 441
337 338
337 389
337 390
338 339
339 443
340 341
340 413
340 414
341 342
342 444
343 367
343 368
344 391
344 392
345 368
345 369
346 380
346 381
347 404
347 405
348 425
349 427
350 429
351 374
351 375
352 532
352 533
353 398
353 399
354 550
354 551
355 370
355 371
356 433
357 394
357 395
358 435
359 371
359 372
360 383
360 384
361 407
361 408
362 438
363 440
364 442
365 638
365 639
366 641
366 642
367 368
367 493
368 369
369 451
369 452
370 371
370 508
371 372
372 475
372 476
373 374
373 503
374 375
375 464
375 465
376 377
376 518
377 378
378 488
378 489
379 380
379 445
379 446
380 381
381 498
382 383
382 469
382 470
383 384
384 513
385 386
385 458
385 459
386 387
387 505
388 389
388 482
388 483
389 390
390 520
391 392
391 495
392 393
393 454
393 455
394 395
394 510
395 396
396 478
396 479
397 398
397 504
398 399
399 467
399 468
400 401
400 519
401 402
402 491
402 492
403 404
403 448
403 449
404 405
405 500
406 407
406 472
406 473
407 408
408 515
409 410
409 461
409 462
410 411
411 506
412 413
412 485
412 486
413 414
414 521
415 416
415 497
416 417
417 502
418 419
418 512
419 420
420 517
421 494
422 496
423 499
424 501
425 669
425 670
426 457
426 458
427 608
427 609
428 460
428 461
429 611
429 612
430 466
430 467
431 507
432 509
433 470
433 471
434 511
435 473
435 474
436 514
437 516
438 672
438 673
439 481
439 482
440 632
440 633
441 484
441 485
442 635
442 636
443 490
443 491
444 522
445 446
445 563
446 447
447 564
448 449
448 566
449 450
450 567
451 452
451 569
452 453
453 526
453 527
454 455
454 571
455 456
456 544
456 545
457 458
457 574
458 459
459 536
459 537
460 461
460 575
461 462
462 554
462 555
463 464
463 523
463 524
464 465
465 576
466 467
466 541
466 542
467 468
468 578
469 470
469 533
469 534
470 471
471 580
472 473
472 551
472 552
473 474
474 581
475 476
475 582
476 477
477 529
477 530
478 479
478 584
479 480
480 547
480 548
481 482
481 587
482 483
483 539
483 540
484 485
484 588
485 486
486 557
486 558
487 488
487 589
488 489
489 590
490 491
490 592
491 492
492 593
493 562
494 675
494 676
495 565
496 699
496 700
497 568
498 570
499 535
499 536
500 572
501 553
501 554
502 573
503 527
503 528
504 545
504 546
505 577
506 579
507 559
507 560
508 524
508 525
509 678
509 679
510 542
510 543
511 702
511 703
512 560
512 561
513 583
514 538
514 539
515 585
516 556
516 557
517 586
518 530
518 531
519 548
519 549
520 591
521 594
522 721
522 722
523 524
523 653
524 525
525 656
526 527
526 601
526 602
527 528
528 649
529 530
529 625
529 626
530 531
531 663
532 533
532 614
532 615
533 534
534 657
535 536
535 646
536 537
537 607
537 608
538 539
538 660
539 540
540 631
540 632
541 542
541 654
542 543
543 620
543 621
544 545
544 604
544 605
545 546
546 651
547 548
547 628
547 629
548 549
549 665
550 551
550 617
550 618
551 552
552 658
553 554
553 648
554 555
555 610
555 611
556 557
556 662
557 558
558 634
558 635
559 560
559 655
560 561
561 623
561 624
562 746
562 747
563 643
564 595
564 596
565 596
565 597
566 644
567 598
567 599
568 599
568 600
569 645
570 602
570 603
571 647
572 605
572 606
573 860
573 861
574 650
575 652
576 613
576 614
577 765
577 766
578 616
578 617
579 768
579 769
580 619
580 620
581 622
581 623
582 659
583 626
583 627
584 661
585 629
585 630
586 863
586 864
587 664
588 666
589 667
590 637
590 638
591 789
591 790
592 668
593 640
593 641
594 792
594 793
595 596
595 687
595 688
596 597
597 723
598 599
598 711
598 712
599 600
600 724
601 602
601 676
601 677
602 603
603 725
604 605
604 700
604 701
605 606
606 726
607 608
607 728
608 609
609 693
609 694
610 611
610 730
611 612
612 717
612 718
613 614
613 731
614 615
615 682
615 683
616 617
616 732
617 618
618 706
618 707
619 620
619 690
619 691
620 621
621 735
622 623
622 714
622 715
623 624
624 737
625 626
625 679
625 680
626 627
627 738
628 629
628 703
628 704
629 630
630 739
631 632
631 741
632 633
633 696
633 697
634 635
634 743
635 636
636 720
636 721
637 638
637 744
638 639
639 685
639 686
640 641
640 745
641 642
642 709
642 710
643 899
643 900
644 902
644 903
645 824
645 825
646 688
646 689
647 842
647 843
648 712
648 713
649 727
650 681
650 682
651 729
652 705
652 706
653 670
653 671
654 694
654 695
655 718
655 719
656 733
657 734
658 736
659 827
659 828
660 691
660 692
661 845
661 846
662 715
662 716
663 740
664 684
664 685
665 742
666 708
666 709
667 673
667 674
668 697
668 698
669 670
669 758
669 759
670 671
671 804
672 673
672 782
672 783
673 674
674 819
675 676
675 747
675 748
676 677
677 797
678 679
678 771
678 772
679 680
680 812
681 682
681 799
682 683
683 764
683 765
684 685
684 814
685 686
686 788
686 789
687 688
687 794
688 689
689 753
689 754
690 691
690 809
691 692
692 777
692 778
693 694
693 761
693 762
694 695
695 806
696 697
696 785
696 786
697 698
698 821
699 700
699 750
699 751
700 701
701 798
702 703
702 774
702 775
703 704
704 813
705 706
705 801
706 707
707 767
707 768
708 709
708 816
709 710
710 791
710 792
711 712
711 795
712 713
713 756
713 757
714 715
714 810
715 716
716 780
716 781
717 718
717 803
718 719
719 808
720 721
720 818
721 722
722 823
723 749
723 750
724 796
725 752
725 753
726 755
726 756
727 759
727 760
728 800
729 762
729 763
730 802
731 805
732 807
733 770
733 771
734 923
734 924
735 773
735 774
736 926
736 927
737 811
738 776
738 777
739 779
739 780
740 783
740 784
741 815
742 786
742 787
743 817
744 820
745 822
746 747
746 866
747 748
748 867
749 750
749 869
750 751
751 870
752 753
752 833
752 834
753 754
754 873
755 756
755 851
755 852
756 757
757 875
758 759
758 825
758 826
759 760
760 876
761 762
761 843
761 844
762 763
763 877
764 765
764 879
765 766
766 839
766 840
767 768
767 881
768 769
769 857
769 858
770 771
770 883
771 772
772 831
772 832
773 774
773 884
774 775
775 849
775 850
776 777
776 836
776 837
777 778
778 886
779 780
779 854
779 855
780 781
781 888
782 783
782 828
782 829
783 784
784 889
785 786
785 846
785 847
786 787
787 890
788 789
788 892
789 790
790 893
791 792
791 895
792 793
793 896
794 868
795 871
796 1018
796 1019
797 872
798 874
799 834
799 835
800 988
800 989
801 852
801 853
802 1012
802 1013
803 861
803 862
804 878
805 830
805 831
806 880
807 848
807 849
808 882
809 840
809 841
810 858
810 859
811 1021
811 1022
812 885
813 887
814 837
814 838
815 991
815 992
816 855
816 856
817 1015
817 1016
818 864
818 865
819 891
820 980
820 981
821 894
822 1004
822 1005
823 897
824 825
824 948
825 826
826 951
827 828
827 962
828 829
829 965
830 831
830 954
831 832
832 922
832 923
833 834
833 949
834 835
835 911
835 912
836 837
836 963
837 838
838 935
838 936
839 840
839 916
839 917
840 841
841 959
842 843
842 905
842 906
843 844
844 952
845 846
845 929
845 930
846 847
847 966
848 849
848 956
849 850
850 925
850 926
851 852
851 950
852 853
853 914
853 915
854 855
854 964
855 856
856 938
856 939
857 858
857 919
857 920
858 859
859 961
860 861
860 908
860 909
861 862
862 953
863 864
863 932
863 933
864 865
865 967
866 946
867 898
867 899
868 1049
868 1050
869 947
870 901
870 902
871 1052
871 1053
872 1055
872 1056
873 904
873 905
874 1058
874 1059
875 907
875 908
876 910
876 911
877 913
877 914
878 1066
878 1067
879 955
880 917
880 918
881 957
882 920
882 921
883 958
884 960
885 1079
885 1080
886 928
886 929
887 1082
887 1083
888 931
888 932
889 934
889 935
890 937
890 938
891 1090
891 1091
892 968
893 940
893 941
894 941
894 942
895 969
896 943
896 944
897 944
897 945
898 899
898 1024
899 900
900 982
900 983
901 902
901 1025
902 903
903 1006
903 1007
904 905
904 1026
905 906
906 995
906 996
907 908
907 1027
908 909
909 1019
909 1020
910 911
910 976
910 977
911 912
912 1029
913 914
913 1000
913 1001
914 915
915 1031
916 917
916 989
916 990
917 918
918 1033
919 920
919 1013
919 1014
920 921
921 1034
922 923
922 1035
923 924
924 985
924 986
925 926
925 1037
926 927
927 1009
927 1010
928 929
928 1039
929 930
930 998
930 999
931 932
931 1040
932 933
933 1022
933 1023
934 935
934 979
934 980
935 936
936 1042
937 938
937 1003
937 1004
938 939
939 1044
940 941
940 992
940 993
941 942
942 1046
943 944
943 1016
943 1017
944 945
945 1047
946 970
946 971
947 994
947 995
948 971
948 972
949 983
949 984
950 1007
950 1008
951 1028
952 1030
953 1032
954 977
954 978
955 1135
955 1136
956 1001
956 1002
957 1153
957 1154
958 973
958 974
959 1036
960 997
960 998
961 1038
962 974
962 975
963 986
963 987
964 1010
964 1011
965 1041
966 1043
967 1045
968 1241
968 1242
969 1244
969 1245
970 971
970 1096
971 972
972 1054
972 1055
973 974
973 1111
974 975
975 1078
975 1079
976 977
976 1106
977 978
978 1067
978 1068
979 980
979 1121
980 981
981 1091
981 1092
982 983
982 1048
982 1049
983 984
984 1101
985 986
985 1072
985 1073
986 987
987 1116
988 989
988 1061
988 1062
989 990
990 1108
991 992
991 1085
991 1086
992 993
993 1123
994 995
994 1098
995 996
996 1057
996 1058
997 998
997 1113
998 999
999 1081
999 1082
1000 1001
1000 1107
1001 1002
1002 1070
1002 1071
1003 1004
1003 1122
1004 1005
1005 1094
1005 1095
1006 1007
1006 1051
1006 1052
1007 1008
1008 1103
1009 1010
1009 1075
1009 1076
1010 1011
1011 1118
1012 1013
1012 1064
1012 1065
1013 1014
1014 1109
1015 1016
1015 1088
1015 1089
1016 1017
1017 1124
1018 1019
1018 1100
1019 1020
1020 1105
1021 1022
1021 1115
1022 1023
1023 1120
1024 1097
1025 1099
1026 1102
1027 1104
1028 1272
1028 1273
1029 1060
1029 1061
1030 1211
1030 1212
1031 1063
1031 1064
1032 1214
1032 1215
1033 1069
1033 1070
1034 1110
1035 1112
1036 1073
1036 1074
1037 1114
1038 1076
1038 1077
1039 1117
1040 1119
1041 1275
1041 1276
1042 1084
1042 1085
1043 1235
1043 1236
1044 1087
1044 1088
1045 1238
1045 1239
1046 1093
1046 1094
1047 1125
1048 1049
1048 1166
1049 1050
1050 1167
1051 1052
1051 1169
1052 1053
1053 1170
1054 1055
1054 1172
1055 1056
1056 1129
1056 1130
1057 1058
1057 1174
1058 1059
1059 1147
1059 1148
1060 1061
1060 1177
1061 1062
1062 1139
1062 1140
1063 1064
1063 1178
1064 1065
1065 1157
1065 1158
1066 1067
1066 1126
1066 1127
1067 1068
1068 1179
1069 1070
1069 1144
1069 1145
1070 1071
1071 1181
1072 1073
1072 1136
1072 1137
1073 1074
1074 1183
1075 1076
1075 1154
1075 1155
1076 1077
1077 1184
1078 1079
1078 1185
1079 1080
1080 1132
1080 1133
1081 1082
1081 1187
1082 1083
1083 1150
1083 1151
1084 1085
1084 1190
1085 1086
1086 1142
1086 1143
1087 1088
1087 1191
1088 1089
1089 1160
1089 1161
1090 1091
1090 1192
1091 1092
1092 1193
1093 1094
1093 1195
1094 1095
1095 1196
1096 1165
1097 1278
1097 1279
1098 1168
1099 1302
1099 1303
1100 1171
1101 1173
1102 1138
1102 1139
1103 1175
1104 1156
1104 1157
1105 1176
1106 1130
1106 1131
1107 1148
1107 1149
1108 1180
1109 1182
1110 1162
1110 1163
1111 1127
1111 1128
1112 1281
1112 1282
1113 1145
1113 1146
1114 1305
1114 1306
1115 1163
1115 1164
1116 1186
1117 1141
1117 1142
1118 1188
1119 1159
1119 1160
1120 1189
1121 1133
1121 1134
1122 1151
1122 1152
1123 1194
1124 1197
1125 1324
1125 1325
1126 1127
1126 1256
1127 1128
1128 1259
1129 1130
1129 1204
1129 1205
1130 1131
1131 1252
1132 1133
1132 1228
1132 1229
1133 1134
1134 1266
1135 1136
1135 1217
1135 1218
1136 1137
1137 1260
1138 1139
1138 1249
1139 1140
1140 1210
1140 1211
1141 1142
1141 1263
1142 1143
1143 1234
1143 1235
1144 1145
1144 1257
1145 1146
1146 1223
1146 1224
1147 1148
1147 1207
1147 1208
1148 1149
1149 1254
1150 1151
1150 1231
1150 1232
1151 1152
1152 1268
1153 1154
1153 1220
1153 1221
1154 1155
1155 1261
1156 1157
1156 1251
1157 1158
1158 1213
1158 1214
1159 1160
1159 1265
1160 1161
1161 1237
1161 1238
1162 1163
1162 1258
1163 1164
1164 1226
1164 1227
1165 1349
1165 1350
1166 1246
1167 1198
1167 1199
1168 1199
1168 1200
1169 1247
1170 1201
1170 1202
1171 1202
1171 1203
1172 1248
1173 1205
1173 1206
1174 1250
1175 1208
1175 1209
1176 1463
1176 1464
1177 1253
1178 1255
1179 1216
1179 1217
1180 1368
1180 1369
1181 1219
1181 1220
1182 1371
1182 1372
1183 1222
1183 1223
1184 1225
1184 1226
1185 1262
1186 1229
1186 1230
1187 1264
1188 1232
1188 1233
1189 1466
1189 1467
1190 1267
1191 1269
1192 1270
1193 1240
1193 1241
1194 1392
1194 1393
1195 1271
1196 1243
1196 1244
1197 1395
1197 1396
1198 1199
1198 1290
1198 1291
1199 1200
1200 1326
1201 1202
1201 1314
1201 1315
1202 1203
1203 1327
1204 1205
1204 1279
1204 1280
1205 1206
1206 1328
1207 1208
1207 1303
1207 1304
1208 1209
1209 1329
1210 1211
1210 1331
1211 1212
1212 1296
1212 1297
1213 1214
1213 1333
1214 1215
1215 1320
1215 1321
1216 1217
1216 1334
1217 1218
1218 1285
1218 1286
1219 1220
1219 1335
1220 1221
1221 1309
1221 1310
1222 1223
1222 1293
1222 1294
1223 1224
1224 1338
1225 1226
1225 1317
1225 1318
1226 1227
1227 1340
1228 1229
1228 1282
1228 1283
1229 1230
1230 1341
1231 1232
1231 1306
1231 1307
1232 1233
1233 1342
1234 1235
1234 1344
1235 1236
1236 1299
1236 1300
1237 1238
1237 1346
1238 1239
1239 1323
1239 1324
1240 1241
1240 1347
1241 1242
1242 1288
1242 1289
1243 1244
1243 1348
1244 1245
1245 1312
1245 1313
1246 1502
1246 1503
1247 1505
1247 1506
1248 1427
1248 1428
1249 1291
1249 1292
1250 1445
1250 1446
1251 1315
1251 1316
1252 1330
1253 1284
1253 1285
1254 1332
1255 1308
1255 1309
1256 1273
1256 1274
1257 1297
1257 1298
1258 1321
1258 1322
1259 1336
1260 1337
1261 1339
1262 1430
1262 1431
1263 1294
1263 1295
1264 1448
1264 1449
1265 1318
1265 1319
1266 1343
1267 1287
1267 1288
1268 1345
1269 1311
1269 1312
1270 1276
1270 1277
1271 1300
1271 1301
1272 1273
1272 1361
1272 1362
1273 1274
1274 1407
1275 1276
1275 1385
1275 1386
1276 1277
1277 1422
1278 1279
1278 1350
1278 1351
1279 1280
1280 1400
1281 1282
1281 1374
1281 1375
1282 1283
1283 1415
1284 1285
1284 1402
1285 1286
1286 1367
1286 1368
1287 1288
1287 1417
1288 1289
1289 1391
1289 1392
1290 1291
1290 1397
1291 1292
1292 1356
1292 1357
1293 1294
1293 1412
1294 1295
1295 1380
1295 1381
1296 1297
1296 1364
1296 1365
1297 1298
1298 1409
1299 1300
1299 1388
1299 1389
1300 1301
1301 1424
1302 1303
1302 1353
1302 1354
1303 1304
1304 1401
1305 1306
1305 1377
1305 1378
1306 1307
1307 1416
1308 1309
1308 1404
1309 1310
1310 1370
1310 1371
1311 1312
1311 1419
1312 1313
1313 1394
1313 1395
1314 1315
1314 1398
1315 1316
1316 1359
1316 1360
1317 1318
1317 1413
1318 1319
1319 1383
1319 1384
1320 1321
1320 1406
1321 1322
1322 1411
1323 1324
1323 1421
1324 1325
1325 1426
1326 1352
1326 1353
1327 1399
1328 1355
1328 1356
1329 1358
1329 1359
1330 1362
1330 1363
1331 1403
1332 1365
1332 1366
1333 1405
1334 1408
1335 1410
1336 1373
1336 1374
1337 1526
1337 1527
1338 1376
1338 1377
1339 1529
1339 1530
1340 1414
1341 1379
1341 1380
1342 1382
1342 1383
1343 1386
1343 1387
1344 1418
1345 1389
1345 1390
1346 1420
1347 1423
1348 1425
1349 1350
1349 1469
1350 1351
1351 1470
1352 1353
1352 1472
1353 1354
1354 1473
1355 1356
1355 1436
1355 1437
1356 1357
1357 1476
1358 1359
1358 1454
1358 1455
1359 1360
1360 1478
1361 1362
1361 1428
1361 1429
1362 1363
1363 1479
1364 1365
1364 1446
1364 1447
1365 1366
1366 1480
1367 1368
1367 1482
1368 1369
1369 1442
1369 1443
1370 1371
1370 1484
1371 1372
1372 1460
1372 1461
1373 1374
1373 1486
1374 1375
1375 1434
1375 1435
1376 1377
1376 1487
1377 1378
1378 1452
1378 1453
1379 1380
1379 1439
1379 1440
1380 1381
1381 1489
1382 1383
1382 1457
1382 1458
1383 1384
1384 1491
1385 1386
1385 1431
1385 1432
1386 1387
1387 1492
1388 1389
1388 1449
1388 1450
1389 1390
1390 1493
1391 1392
1391 1495
1392 1393
1393 1496
1394 1395
1394 1498
1395 1396
1396 1499
1397 1471
1398 1474
1399 1621
1399 1622
1400 1475
1401 1477
1402 1437
1402 1438
1403 1591
1403 1592
1404 1455
1404 1456
1405 1615
1405 1616
1406 1464
1406 1465
1407 1481
1408 1433
1408 1434
1409 1483
1410 1451
1410 1452
1411 1485
1412 1443
1412 1444
1413 1461
1413 1462
1414 1624
1414 1625
1415 1488
1416 1490
1417 1440
1417 1441
1418 1594
1418 1595
1419 1458
1419 1459
1420 1618
1420 1619
1421 1467
1421 1468
1422 1494
1423 1583
1423 1584
1424 1497
1425 1607
1425 1608
1426 1500
1427 1428
1427 1551
1428 1429
1429 1554
1430 1431
1430 1565
1431 1432
1432 1568
1433 1434
1433 1557
1434 1435
1435 1525
1435 1526
1436 1437
1436 1552
1437 1438
1438 1514
1438 1515
1439 1440
1439 1566
1440 1441
1441 1538
1441 1539
1442 1443
1442 1519
1442 1520
1443 1444
1444 1562
1445 1446
1445 1508
1445 1509
1446 1447
1447 1555
1448 1449
1448 1532
1448 1533
1449 1450
1450 1569
1451 1452
1451 1559
1452 1453
1453 1528
1453 1529
1454 1455
1454 1553
1455 1456
1456 1517
1456 1518
1457 1458
1457 1567
1458 1459
1459 1541
1459 1542
1460 1461
1460 1522
1460 1523
1461 1462
1462 1564
1463 1464
1463 1511
1463 1512
1464 1465
1465 1556
1466 1467
1466 1535
1466 1536
1467 1468
1468 1570
1469 1549
1470 1501
1470 1502
1471 1652
1471 1653
1472 1550
1473 1504
1473 1505
1474 1655
1474 1656
1475 1658
1475 1659
1476 1507
1476 1508
1477 1661
1477 1662
1478 1510
1478 1511
1479 1513
1479 1514
1480 1516
1480 1517
1481 1669
1481 1670
1482 1558
1483 1520
1483 1521
1484 1560
1485 1523
1485 1524
1486 1561
1487 1563
1488 1682
1488 1683
1489 1531
1489 1532
1490 1685
1490 1686
1491 1534
1491 1535
1492 1537
1492 1538
1493 1540
1493 1541
1494 1693
1494 1694
1495 1571
1496 1543
1496 1544
1497 1544
1497 1545
1498 1572
1499 1546
1499 1547
1500 1547
1500 1548
1501 1502
1501 1627
1502 1503
1503 1585
1503 1586
1504 1505
1504 1628
1505 1506
1506 1609
1506 1610
1507 1508
1507 1629
1508 1509
1509 1598
1509 1599
1510 1511
1510 1630
1511 1512
1512 1622
1512 1623
1513 1514
1513 1579
1513 1580
1514 1515
1515 1632
1516 1517
1516 1603
1516 1604
1517 1518
1518 1634
1519 1520
1519 1592
1519 1593
1520 1521
1521 1636
1522 1523
1522 1616
1522 1617
1523 1524
1524 1637
1525 1526
1525 1638
1526 1527
1527 1588
1527 1589
1528 1529
1528 1640
1529 1530
1530 1612
1530 1613
1531 1532
1531 1642
1532 1533
1533 1601
1533 1602
1534 1535
1534 1643
1535 1536
1536 1625
1536 1626
1537 1538
1537 1582
1537 1583
1538 1539
1539 1645
1540 1541
1540 1606
1540 1607
1541 1542
1542 1647
1543 1544
1543 1595
1543 1596
1544 1545
1545 1649
1546 1547
1546 1619
1546 1620
1547 1548
1548 1650
1549 1573
1549 1574
1550 1597
1550 1598
1551 1574
1551 1575
1552 1586
1552 1587
1553 1610
1553 1611
1554 1631
1555 1633
1556 1635
1557 1580
1557 1581
1558 1738
1558 1739
1559 1604
1559 1605
1560 1756
1560 1757
1561 1576
1561 1577
1562 1639
1563 1600
1563 1601
1564 1641
1565 1577
1565 1578
1566 1589
1566 1590
1567 1613
1567 1614
1568 1644
1569 1646
1570 1648
1571 1844
1571 1845
1572 1847
1572 1848
1573 1574
1573 1699
1574 1575
1575 1657
1575 1658
1576 1577
1576 1714
1577 1578
1578 1681
1578 1682
1579 1580
1579 1709
1580 1581
1581 1670
1581 1671
1582 1583
1582 1724
1583 1584
1584 1694
1584 1695
1585 1586
1585 1651
1585 1652
1586 1587
1587 1704
1588 1589
1588 1675
1588 1676
1589 1590
1590 1719
1591 1592
1591 1664
1591 1665
1592 1593
1593 1711
1594 1595
1594 1688
1594 1689
1595 1596
1596 1726
1597 1598
1597 1701
1598 1599
1599 1660
1599 1661
1600 1601
1600 1716
1601 1602
1602 1684
1602 1685
1603 1604
1603 1710
1604 1605
1605 1673
1605 1674
1606 1607
1606 1725
1607 1608
1608 1697
1608 1698
1609 1610
1609 1654
1609 1655
1610 1611
1611 1706
1612 1613
1612 1678
1612 1679
1613 1614
1614 1721
1615 1616
1615 1667
1615 1668
1616 1617
1617 1712
1618 1619
1618 1691
1618 1692
1619 1620
1620 1727
1621 1622
1621 1703
1622 1623
1623 1708
1624 1625
1624 1718
1625 1626
1626 1723
1627 1700
1628 1702
1629 1705
1630 1707
1631 1875
1631 1876
1632 1663
1632 1664
1633 1814
1633 1815
1634 1666
1634 1667
1635 1817
1635 1818
1636 1672
1636 1673
1637 1713
1638 1715
1639 1676
1639 1677
1640 1717
1641 1679
1641 1680
1642 1720
1643 1722
1644 1878
1644 1879
1645 1687
1645 1688
1646 1838
1646 1839
1647 1690
1647 1691
1648 1841
1648 1842
1649 1696
1649 1697
1650 1728
1651 1652
1651 1769
1652 1653
1653 1770
1654 1655
1654 1772
1655 1656
1656 1773
1657 1658
1657 1775
1658 1659
1659 1732
1659 1733
1660 1661
1660 1777
1661 1662
1662 1750
1662 1751
1663 1664
1663 1780
1664 1665
1665 1742
1665 1743
1666 1667
1666 1781
1667 1668
1668 1760
1668 1761
1669 1670
1669 1729
1669 1730
1670 1671
1671 1782
1672 1673
1672 1747
1672 1748
1673 1674
1674 1784
1675 1676
1675 1739
1675 1740
1676 1677
1677 1786
1678 1679
1678 1757
1678 1758
1679 1680
1680 1787
1681 1682
1681 1788
1682 1683
1683 1735
1683 1736
1684 1685
1684 1790
1685 1686
1686 1753
1686 1754
1687 1688
1687 1793
1688 1689
1689 1745
1689 1746
1690 1691
1690 1794
1691 1692
1692 1763
1692 1764
1693 1694
1693 1795
1694 1695
1695 1796
1696 1697
1696 1798
1697 1698
1698 1799
1699 1768
1700 1881
1700 1882
1701 1771
1702 1905
1702 1906
1703 1774
1704 1776
1705 1741
1705 1742
1706 1778
1707 1759
1707 1760
1708 1779
1709 1733
1709 1734
1710 1751
1710 1752
1711 1783
1712 1785
1713 1765
1713 1766
1714 1730
1714 1731
1715 1884
1715 1885
1716 1748
1716 1749
1717 1908
1717 1909
1718 1766
1718 1767
1719 1789
1720 1744
1720 1745
1721 1791
1722 1762
1722 1763
1723 1792
1724 1736
1724 1737
1725 1754
1725 1755
1726 1797
1727 1800
1728 1927
1728 1928
1729 1730
1729 1859
1730 1731
1731 1862
1732 1733
1732 1807
1732 1808
1733 1734
1734 1855
1735 1736
1735 1831
1735 1832
1736 1737
1737 1869
1738 1739
1738 1820
1738 1821
1739 1740
1740 1863
1741 1742
1741 1852
1742 1743
1743 1813
1743 1814
1744 1745
1744 1866
1745 1746
1746 1837
1746 1838
1747 1748
1747 1860
1748 1749
1749 1826
1749 1827
1750 1751
1750 1810
1750 1811
1751 1752
1752 1857
1753 1754
1753 1834
1753 1835
1754 1755
1755 1871
1756 1757
1756 1823
1756 1824
1757 1758
1758 1864
1759 1760
1759 1854
1760 1761
1761 1816
1761 1817
1762 1763
1762 1868
1763 1764
1764 1840
1764 1841
1765 1766
1765 1861
1766 1767
1767 1829
1767 1830
1768 1952
1769 1849
1770 1801
1770 1802
1771 1802
1771 1803
1772 1850
1773 1804
1773 1805
1774 1805
1774 1806
1775 1851
1776 1808
1776 1809
1777 1853
1778 1811
1778 1812
1779 1969
1780 1856
1781 1858
1782 1819
1782 1820
1783 1982
1784 1822
1784 1823
1785 1986
1786 1825
1786 1826
1787 1828
1787 1829
1788 1865
1789 1832
1789 1833
1790 1867
1791 1835
1791 1836
1792 2005
1793 1870
1794 1872
1795 1873
1796 1843
1796 1844
1797 2018
1798 1874
1799 1846
1799 1847
1800 2022
1801 1802
1801 1893
1801 1894
1802 1803
1803 1929
1804 1805
1804 1917
1804 1918
1805 1806
1806 1930
1807 1808
1807 1882
1807 1883
1808 1809
1809 1931
1810 1811
1810 1906
1810 1907
1811 1812
1812 1932
1813 1814
1813 1934
1814 1815
1815 1899
1815 1900
1816 1817
1816 1936
1817 1818
1818 1923
1818 1924
1819 1820
1819 1937
1820 1821
1821 1888
1821 1889
1822 1823
1822 1938
1823 1824
1824 1912
1824 1913
1825 1826
1825 1896
1825 1897
1826 1827
1827 1941
1828 1829
1828 1920
1828 1921
1829 1830
1830 1943
1831 1832
1831 1885
1831 1886
1832 1833
1833 1944
1834 1835
1834 1909
1834 1910
1835 1836
1836 1945
1837 1838
1837 1947
1838 1839
1839 1902
1839 1903
1840 1841
1840 1949
1841 1842
1842 1926
1842 1927
1843 1844
1843 1950
1844 1845
1845 1891
1845 1892
1846 1847
1846 1951
1847 1848
1848 1915
1848 1916
1849 1954
1850 1958
1851 1961
1852 1894
1852 1895
1853 1965
1854 1918
1854 1919
1855 1933
1856 1887
1856 1888
1857 1935
1858 1911
1858 1912
1859 1876
1859 1877
1860 1900
1860 1901
1861 1924
1861 1925
1862 1939
1863 1940
1864 1942
1865 1997
1866 1897
1866 1898
1867 2001
1868 1921
1868 1922
1869 1946
1870 1890
1870 1891
1871 1948
1872 1914
1872 1915
1873 1879
1873 1880
1874 1903
1874 1904
1875 1876
1875 1970
1876 1877
1877 1979
1878 1879
1878 2006
1879 1880
1880 2015
1881 1882
1881 1953
1882 1883
1883 1962
1884 1885
1884 1989
1885 1886
1886 1998
1887 1888
1887 1972
1888 1889
1889 1981
1890 1891
1890 2008
1891 1892
1892 2017
1893 1894
1893 1955
1894 1895
1895 1964
1896 1897
1896 1991
1897 1898
1898 2000
1899 1900
1899 1974
1900 1901
1901 1983
1902 1903
1902 2010
1903 1904
1904 2019
1905 1906
1905 1957
1906 1907
1907 1966
1908 1909
1908 1993
1909 1910
1910 2002
1911 1912
1911 1976
1912 1913
1913 1985
1914 1915
1914 2012
1915 1916
1916 2021
1917 1918
1917 1959
1918 1919
1919 1968
1920 1921
1920 1995
1921 1922
1922 2004
1923 1924
1923 1978
1924 1925
1925 1987
1926 1927
1926 2014
1927 1928
1928 2023
1929 1956
1930 1960
1931 1963
1932 1967
1933 1971
1934 1973
1935 1975
1936 1977
1937 1980
1938 1984
1939 1988
1940 1990
1941 1992
1942 1994
1943 1996
1944 1999
1945 2003
1946 2007
1947 2009
1948 2011
1949 2013
1950 2016
1951 2020
